
Gurobi 10.0.1 (linux64) logging started Mon May 29 04:35:53 2023

Set parameter LogFile to value "logFiles/N-1L-B/N-1L-13U-10F-23V-120D-relax/basic-05-29-2023, 04-35-H70-P50-O15.log"
Gurobi Optimizer version 10.0.1 build v10.0.1rc0 (linux64)

CPU model: Intel(R) Xeon(R) Gold 5115 CPU @ 2.40GHz, instruction set [SSE2|AVX|AVX2|AVX512]
Thread count: 20 physical cores, 40 logical processors, using up to 20 threads

Optimize a model with 85470 rows, 921564 columns and 5408871 nonzeros
Model fingerprint: 0x2d803c6d
Variable types: 216042 continuous, 705522 integer (705522 binary)
Coefficient statistics:
  Matrix range     [1e+00, 2e+05]
  Objective range  [4e+01, 3e+07]
  Bounds range     [1e+00, 1e+00]
  RHS range        [1e+00, 2e+06]

Loaded user MIP start with objective 1.28342e+09

Presolve removed 49312 rows and 107392 columns (presolve time = 5s) ...
Presolve removed 54528 rows and 107392 columns (presolve time = 10s) ...
Presolve removed 54528 rows and 107393 columns (presolve time = 15s) ...
Presolve removed 54528 rows and 107393 columns (presolve time = 20s) ...
Presolve removed 54538 rows and 107611 columns (presolve time = 25s) ...
Presolve removed 54472 rows and 107545 columns
Presolve time: 29.78s
Presolved: 30998 rows, 814019 columns, 3708766 nonzeros
Found heuristic solution: objective 1.386961e+09
Variable types: 131466 continuous, 682553 integer (682553 binary)
Deterministic concurrent LP optimizer: primal simplex, dual simplex, and barrier
Showing barrier log only...

Root barrier log...

Ordering time: 1.24s

Barrier statistics:
 AA' NZ     : 1.958e+06
 Factor NZ  : 6.857e+06 (roughly 400 MB of memory)
 Factor Ops : 1.006e+10 (less than 1 second per iteration)
 Threads    : 18

                  Objective                Residual
Iter       Primal          Dual         Primal    Dual     Compl     Time
   0  -1.90797163e+16  9.19719031e+13  1.33e+09 4.77e+06  1.13e+12    42s
   1  -4.58080733e+15  9.89649186e+13  3.19e+08 2.39e+06  2.79e+11    43s
   2  -4.45946793e+14  7.62198863e+13  3.12e+07 3.51e+04  2.75e+10    43s
   3  -3.15058911e+13  4.57533355e+13  2.20e+06 1.31e+03  1.97e+09    44s
   4  -1.41167318e+13  1.91126420e+13  9.87e+05 1.91e+02  8.87e+08    45s
   5  -6.25728203e+12  1.22165412e+13  4.38e+05 1.86e-08  4.03e+08    45s
   6  -1.70231203e+12  1.10016134e+13  1.19e+05 2.24e-08  1.14e+08    45s
   7  -4.30495185e+11  9.21947866e+12  3.01e+04 3.48e+01  3.23e+07    46s
   8  -3.04820369e+11  7.74660419e+12  2.14e+04 3.09e+01  2.30e+07    46s
   9  -1.88779819e+11  6.15518100e+12  1.33e+04 1.73e+01  1.46e+07    47s
  10  -1.35818777e+11  4.19903232e+12  9.58e+03 6.97e+00  9.70e+06    48s
  11  -1.00373362e+11  2.64615427e+12  7.11e+03 1.13e+00  6.42e+06    48s
  12  -4.10042129e+10  1.83970588e+12  2.97e+03 1.70e-08  2.99e+06    49s
  13  -2.53562572e+10  1.43103433e+12  1.88e+03 1.58e-08  1.99e+06    49s
  14  -1.52913469e+10  7.91873065e+11  1.18e+03 1.82e-08  1.10e+06    49s
  15  -2.93579059e+09  4.64800725e+11  3.21e+02 2.06e-08  4.33e+05    50s
  16  -2.37955963e+08  1.86827754e+11  1.33e+02 2.62e-08  1.67e+05    50s
  17   4.43376543e+08  1.31450580e+11  8.63e+01 2.70e-07  1.13e+05    51s
  18   8.69583901e+08  1.07048017e+11  5.70e+01 2.26e-07  8.65e+04    51s
  19   1.25021646e+09  7.38417527e+10  3.08e+01 1.97e-07  5.60e+04    52s
  20   1.38679038e+09  6.91916145e+10  2.17e+01 3.07e-07  4.97e+04    53s
  21   1.44542895e+09  5.44140255e+10  1.78e+01 2.83e-07  3.92e+04    53s
  22   1.46177684e+09  4.73527491e+10  1.68e+01 3.34e-07  3.46e+04    54s
  23   1.54183579e+09  3.75796717e+10  1.19e+01 2.66e-07  2.69e+04    54s
  24   1.59182215e+09  2.73625677e+10  8.77e+00 2.86e-07  1.97e+04    55s
  25   1.63766173e+09  2.30710777e+10  6.04e+00 3.30e-07  1.60e+04    56s
  26   1.64888444e+09  1.87843468e+10  5.27e+00 3.88e-07  1.32e+04    56s
  27   1.70406236e+09  1.43319665e+10  2.19e+00 3.48e-07  8.92e+03    57s
  28   1.71659917e+09  1.27123077e+10  1.67e+00 3.10e-07  7.60e+03    58s
  29   1.72723029e+09  9.02894764e+09  1.25e+00 3.86e-07  5.04e+03    58s
  30   1.73202678e+09  6.99400823e+09  1.06e+00 4.11e-07  3.64e+03    59s
  31   1.73543626e+09  6.68224157e+09  1.01e+00 3.11e-07  3.41e+03    59s
  32   1.74985503e+09  5.34681147e+09  8.13e-01 3.60e-07  2.46e+03    60s
  33   1.75692519e+09  4.39542135e+09  5.72e-01 2.96e-07  1.77e+03    61s
  34   1.76303739e+09  3.28734853e+09  4.22e-01 3.44e-07  1.02e+03    61s
  35   1.76953420e+09  3.08083806e+09  2.64e-01 4.86e-07  8.53e+02    62s
  36   1.77422810e+09  2.92000671e+09  2.23e-01 2.93e-07  7.41e+02    63s
  37   1.77807418e+09  2.70154804e+09  1.92e-01 3.90e-07  5.96e+02    63s
  38   1.78101181e+09  2.48309093e+09  1.52e-01 3.27e-07  4.51e+02    64s
  39   1.78292752e+09  2.38892123e+09  1.38e-01 4.97e-07  3.89e+02    65s
  40   1.78564744e+09  2.14131997e+09  1.19e-01 5.03e-07  2.30e+02    65s
  41   1.78938622e+09  1.96075888e+09  6.85e-02 5.06e-07  1.11e+02    66s
  42   1.79172801e+09  1.93881965e+09  5.11e-02 4.04e-07  9.47e+01    67s
  43   1.79319231e+09  1.90828308e+09  4.32e-02 4.85e-07  7.42e+01    67s
  44   1.79362825e+09  1.88463854e+09  4.09e-02 5.10e-07  5.92e+01    68s
  45   1.79467878e+09  1.88186873e+09  3.42e-02 5.33e-07  5.63e+01    68s
  46   1.79530701e+09  1.88026788e+09  3.19e-02 5.09e-07  5.47e+01    68s
  47   1.79598759e+09  1.86942339e+09  2.87e-02 4.12e-07  4.74e+01    69s
  48   1.79672663e+09  1.86475630e+09  2.56e-02 4.31e-07  4.38e+01    69s
  49   1.79688029e+09  1.86131806e+09  2.50e-02 4.83e-07  4.15e+01    70s
  50   1.79771901e+09  1.85868292e+09  2.27e-02 7.53e-07  3.92e+01    70s
  51   1.79857776e+09  1.85407448e+09  2.02e-02 5.42e-07  3.57e+01    71s
  52   1.79926171e+09  1.85033274e+09  1.87e-02 4.99e-07  3.28e+01    71s
  53   1.79970701e+09  1.84975209e+09  1.78e-02 4.71e-07  3.21e+01    72s
  54   1.80113197e+09  1.84670672e+09  1.54e-02 4.76e-07  2.92e+01    72s
  55   1.80256890e+09  1.84170981e+09  1.31e-02 5.08e-07  2.50e+01    73s
  56   1.80359244e+09  1.84009871e+09  1.12e-02 4.68e-07  2.33e+01    74s
  57   1.80443517e+09  1.83368558e+09  1.00e-02 5.57e-07  1.87e+01    74s
  58   1.80658310e+09  1.82943211e+09  7.33e-03 7.20e-07  1.46e+01    75s
  59   1.80713058e+09  1.82794126e+09  6.89e-03 6.17e-07  1.33e+01    76s
  60   1.80817793e+09  1.82652324e+09  5.85e-03 6.21e-07  1.17e+01    76s
  61   1.80862514e+09  1.82561690e+09  5.44e-03 6.14e-07  1.08e+01    77s
  62   1.80935397e+09  1.82484979e+09  4.83e-03 6.20e-07  9.86e+00    78s
  63   1.81102388e+09  1.82308133e+09  3.55e-03 9.10e-07  7.66e+00    79s
  64   1.81187025e+09  1.82228200e+09  2.94e-03 7.36e-07  6.60e+00    79s
  65   1.81255417e+09  1.82052235e+09  2.51e-03 6.39e-07  5.07e+00    80s
  66   1.81350769e+09  1.81961593e+09  1.96e-03 4.56e-07  3.89e+00    81s
  67   1.81448162e+09  1.81917884e+09  1.43e-03 6.46e-07  2.99e+00    82s
  68   1.81528139e+09  1.81838152e+09  9.89e-04 6.33e-07  1.97e+00    82s
  69   1.81601526e+09  1.81782337e+09  5.87e-04 3.94e-07  1.15e+00    83s
  70   1.81612488e+09  1.81734289e+09  5.29e-04 5.22e-07  7.86e-01    84s
  71   1.81686484e+09  1.81724203e+09  1.36e-04 6.78e-07  2.42e-01    84s
  72   1.81697742e+09  1.81721416e+09  7.72e-05 5.08e-07  1.51e-01    85s
  73   1.81705832e+09  1.81718004e+09  3.56e-05 4.44e-07  7.74e-02    85s
  74   1.81708402e+09  1.81715462e+09  2.31e-05 5.17e-07  4.51e-02    86s
  75   1.81711101e+09  1.81713804e+09  9.65e-06 5.86e-07  1.73e-02    86s
  76   1.81712101e+09  1.81713232e+09  4.81e-06 7.79e-07  7.32e-03    86s
  77   1.81713028e+09  1.81713132e+09  4.34e-07 3.11e-07  6.76e-04    87s
  78   1.81713123e+09  1.81713125e+09  5.26e-08 7.72e-07  1.41e-05    87s
  79   1.81713125e+09  1.81713125e+09  9.22e-10 5.58e-07  3.88e-10    88s

Barrier solved model in 79 iterations and 87.97 seconds (52.86 work units)
Optimal objective 1.81713125e+09


Root crossover log...

   25541 DPushes remaining with DInf 4.4224202e-05                88s
       0 DPushes remaining with DInf 0.0000000e+00                89s

    1803 PPushes remaining with PInf 0.0000000e+00                89s
       0 PPushes remaining with PInf 2.0489136e-02                89s

  Push phase complete: Pinf 2.0489136e-02, Dinf 6.5577928e+00     89s


Root simplex log...

Iteration    Objective       Primal Inf.    Dual Inf.      Time
   27294    1.8171313e+09   0.000000e+00   6.557793e+00     89s
   27325    1.8171312e+09   0.000000e+00   0.000000e+00     90s
Concurrent spin time: 3.01s

Solved with barrier
   27325    1.8171312e+09   0.000000e+00   0.000000e+00     93s

Root relaxation: objective 1.817131e+09, 27325 iterations, 57.57 seconds (26.24 work units)
Total elapsed time = 95.08s

    Nodes    |    Current Node    |     Objective Bounds      |     Work
 Expl Unexpl |  Obj  Depth IntInf | Incumbent    BestBd   Gap | It/Node Time

     0     0 1.8171e+09    0  199 1.3870e+09 1.8171e+09  31.0%     -   98s
H    0     0                    1.811533e+09 1.8171e+09  0.31%     -  116s

Explored 1 nodes (40181 simplex iterations) in 117.06 seconds (69.83 work units)
Thread count was 20 (of 40 available processors)

Solution count 3: 1.81153e+09 1.38696e+09 1.28342e+09 

Optimal solution found (tolerance 1.00e-02)
Best objective 1.811533271034e+09, best bound 1.817131247415e+09, gap 0.3090%
Gurobi Optimizer version 10.0.1 build v10.0.1rc0 (linux64)

CPU model: Intel(R) Xeon(R) Gold 5115 CPU @ 2.40GHz, instruction set [SSE2|AVX|AVX2|AVX512]
Thread count: 20 physical cores, 40 logical processors, using up to 20 threads

Optimize a model with 66544 rows, 934802 columns and 5100212 nonzeros
Model fingerprint: 0xd6b10106
Variable types: 1664 continuous, 933138 integer (933138 binary)
Coefficient statistics:
  Matrix range     [1e+00, 2e+05]
  Objective range  [4e+01, 3e+07]
  Bounds range     [1e+00, 3e+05]
  RHS range        [1e+00, 2e+06]

User MIP start did not produce a new incumbent solution
User MIP start violates constraint flow[RIV,RIV-M,92] by 1.000000000

Presolve removed 63434 rows and 898996 columns
Presolve time: 2.18s
Presolved: 3110 rows, 35806 columns, 159543 nonzeros
Variable types: 668 continuous, 35138 integer (35138 binary)
Deterministic concurrent LP optimizer: primal and dual simplex
Showing first log only...


Root simplex log...

Iteration    Objective       Primal Inf.    Dual Inf.      Time
   32826    1.0160678e+09   6.316931e+01   9.369987e+10      5s
Concurrent spin time: 0.00s

Solved with dual simplex

Root simplex log...

Iteration    Objective       Primal Inf.    Dual Inf.      Time
   10658    1.7931468e+09   0.000000e+00   0.000000e+00      5s

Root relaxation: objective 1.793147e+09, 10658 iterations, 0.87 seconds (0.99 work units)
Another try with MIP start

    Nodes    |    Current Node    |     Objective Bounds      |     Work
 Expl Unexpl |  Obj  Depth IntInf | Incumbent    BestBd   Gap | It/Node Time

H    0     0                    1.777805e+09 1.7931e+09  0.86%     -    5s
     0     0 1.7931e+09    0   46 1.7778e+09 1.7931e+09  0.86%     -    5s

Explored 1 nodes (10840 simplex iterations) in 5.37 seconds (4.36 work units)
Thread count was 20 (of 40 available processors)

Solution count 1: 1.7778e+09 

Optimal solution found (tolerance 1.00e-02)
Best objective 1.777804631957e+09, best bound 1.793146795457e+09, gap 0.8630%
